144 3089
3 4 5 12 14 15 16 17 18 20 23 28 29 30 31 32 34 38 41 47 48 50 54 56 58 60 61 63 64 65 71 72 74 78 79 81 82 85 86 87 88 89 90 91 92 94 97 98 99 100 101 102 104 105 107 108 109 110 113 114 116 117 119 121 123 127 129 131 132 136 137 138 139 140 141 
19 21 24 33 35 40 44 52 53 68 70 73 76 77 80 95 115 118 122 125 135 
1 4 5 12 14 15 16 17 18 20 23 28 29 30 32 34 38 41 47 48 50 54 56 58 60 61 63 64 65 71 72 74 78 79 81 82 85 86 87 88 89 90 91 92 94 97 98 99 100 101 102 104 105 107 108 109 110 113 114 116 117 119 121 123 127 129 131 132 136 137 138 139 140 141 
1 3 5 12 14 15 16 17 18 20 23 28 29 30 32 34 38 41 47 48 54 56 58 60 61 63 64 65 71 72 74 78 79 81 82 85 86 87 88 89 90 91 92 94 97 98 99 100 101 102 104 105 107 108 109 110 113 114 116 117 119 121 123 127 129 131 132 136 137 138 139 140 141 
1 3 4 12 14 15 16 17 18 20 23 28 29 30 32 34 38 41 47 48 54 56 58 60 61 63 64 65 71 72 74 78 79 81 82 85 86 87 88 89 90 91 92 94 97 98 99 100 101 102 104 105 107 108 109 110 113 114 116 117 119 121 123 127 129 131 132 136 137 138 139 140 141 
7 22 39 43 111 
6 11 22 39 43 111 143 
10 25 62 67 128 144 
37 46 112 120 
8 13 26 27 45 62 67 69 124 128 133 144 
7 22 96 106 143 
1 3 4 5 14 15 16 17 18 20 23 28 29 30 32 34 38 41 47 48 54 56 58 60 61 63 64 65 71 72 74 78 79 81 82 85 86 87 88 89 90 91 92 94 97 98 99 100 101 102 104 105 107 108 109 110 113 114 116 117 119 121 123 127 129 131 132 136 137 138 139 140 141 
10 25 26 27 45 67 69 124 144 
1 3 4 5 12 15 16 17 18 20 23 28 29 30 31 32 34 38 41 47 48 50 54 56 58 60 61 63 64 65 71 72 74 78 79 81 82 85 86 87 88 89 90 91 92 94 97 98 99 100 101 102 104 105 107 108 109 110 113 114 116 117 119 121 123 127 129 131 132 136 137 138 139 140 141 
1 3 4 5 12 14 16 17 18 20 23 28 29 30 32 34 38 41 47 48 54 56 58 60 61 63 64 65 71 72 74 78 79 81 82 85 86 87 88 89 90 91 92 94 97 98 99 100 101 102 104 105 107 108 109 110 113 114 116 117 119 121 123 127 129 131 132 136 137 138 139 140 141 
1 3 4 5 12 14 15 17 18 20 23 28 29 30 32 34 38 41 47 48 54 56 58 60 61 63 64 65 71 72 74 78 79 81 82 85 86 87 88 89 90 91 92 94 97 98 99 100 101 102 104 105 107 108 109 110 113 114 116 117 119 121 123 127 129 131 132 136 137 138 139 140 141 
1 3 4 5 12 14 15 16 18 20 23 28 29 30 32 34 38 41 47 48 54 56 58 60 61 63 64 65 71 72 74 78 79 81 82 85 86 87 88 89 90 91 92 94 97 98 99 100 101 102 104 105 107 108 109 110 113 114 116 117 119 121 123 127 129 131 132 136 137 138 139 140 141 
1 3 4 5 12 14 15 16 17 20 23 28 29 30 32 34 38 41 47 48 50 54 56 58 60 61 63 64 65 71 72 74 78 79 81 82 85 86 87 88 89 90 91 92 94 97 98 99 100 101 102 104 105 107 108 109 110 113 114 116 117 119 121 123 127 129 131 132 136 137 138 139 140 141 
2 21 24 33 40 44 52 53 68 70 73 76 77 80 93 95 115 118 122 125 135 
1 3 4 5 12 14 15 16 17 18 23 28 29 30 32 34 38 41 47 48 54 56 58 60 61 63 64 65 71 72 74 78 79 81 82 85 86 87 88 89 90 91 92 94 97 98 99 100 101 102 104 105 107 108 109 110 113 114 116 117 119 121 123 127 129 131 132 136 137 138 139 140 141 
2 19 24 33 35 40 44 49 52 53 68 70 73 76 77 80 93 95 115 118 122 125 135 
6 7 11 39 43 111 143 
1 3 4 5 12 14 15 16 17 18 20 28 29 30 32 34 38 41 47 48 54 56 58 60 61 63 64 65 71 72 74 78 79 81 82 85 86 87 88 89 90 91 92 94 97 98 99 100 101 102 104 105 107 108 109 110 113 114 116 117 119 121 123 127 129 131 132 136 137 138 139 140 141 
2 19 21 33 35 40 44 52 53 68 70 73 76 77 80 95 115 118 122 125 135 
8 13 26 27 45 67 69 124 144 
10 13 25 27 45 67 69 124 144 
10 13 25 26 45 67 69 124 144 
1 3 4 5 12 14 15 16 17 18 20 23 29 30 32 34 38 41 47 48 54 56 58 60 61 63 64 65 71 72 74 78 79 81 82 85 86 87 88 89 90 91 92 94 97 98 99 100 101 102 104 105 107 108 109 110 113 114 116 117 119 121 123 127 129 131 132 136 137 138 139 140 141 
1 3 4 5 12 14 15 16 17 18 20 23 28 30 32 34 38 41 47 48 54 56 58 60 61 63 64 65 71 72 74 78 79 81 82 85 86 88 89 90 91 92 94 97 98 99 100 101 102 104 105 107 108 110 113 114 116 117 119 121 123 127 129 132 136 137 138 139 140 141 
1 3 4 5 12 14 15 16 17 18 20 23 28 29 32 34 38 41 47 48 54 56 58 60 61 63 64 65 71 72 74 78 79 81 82 85 86 87 88 89 90 91 92 94 97 98 99 100 101 102 104 105 107 108 109 110 113 114 116 117 119 121 123 127 129 131 132 136 137 138 139 140 141 
1 14 47 48 60 65 97 98 101 108 114 121 131 138 141 
1 3 4 5 12 14 15 16 17 18 20 23 28 29 30 34 38 41 47 48 54 56 58 60 61 63 64 65 71 72 74 78 79 81 82 85 86 87 88 89 90 91 92 94 97 98 99 100 101 102 104 105 107 108 109 110 113 114 116 117 119 121 123 127 129 131 132 136 137 138 139 140 141 
2 19 21 24 35 40 44 49 52 53 68 70 73 76 77 80 93 95 115 118 122 125 135 
1 3 4 5 12 14 15 16 17 18 20 23 28 29 30 32 38 41 47 48 54 56 58 60 61 63 64 65 71 72 74 78 79 81 82 85 86 87 88 89 90 91 92 94 97 98 99 100 101 102 104 105 107 108 109 110 113 114 116 117 119 121 123 127 129 131 132 136 137 138 139 140 141 
2 21 24 33 44 49 52 53 68 70 73 76 77 80 93 95 115 118 122 125 135 
55 126 
9 46 112 120 
1 3 4 5 12 14 15 16 17 18 20 23 28 29 30 32 34 41 47 48 54 56 58 60 61 63 64 65 71 72 74 78 79 81 82 85 86 87 88 89 90 91 92 94 97 98 99 100 101 102 104 105 107 108 109 110 113 114 116 117 119 121 123 127 129 131 132 136 137 138 139 140 141 
6 7 22 43 111 
2 19 21 24 33 44 52 53 68 70 73 76 77 80 95 115 118 122 125 135 
1 3 4 5 12 14 15 16 17 18 20 23 28 29 30 32 34 38 47 48 54 56 58 60 61 63 64 65 71 72 74 78 79 81 82 85 86 87 88 89 90 91 92 94 97 98 99 100 101 102 104 105 107 108 109 110 113 114 116 117 119 121 123 127 129 131 132 136 137 138 139 140 141 

6 7 22 39 111 
2 19 21 24 33 35 40 49 52 53 68 70 73 76 77 80 93 95 115 118 122 125 135 
10 13 25 26 27 67 69 124 128 144 
9 37 84 103 112 120 
1 3 4 5 12 14 15 16 17 18 20 23 28 29 30 31 32 34 38 41 48 54 56 58 60 61 63 64 65 71 72 74 78 79 81 82 85 86 87 88 89 90 91 92 94 97 98 99 100 101 102 104 105 107 108 109 110 113 114 116 117 119 121 123 127 129 131 132 136 137 138 139 140 141 
1 3 4 5 12 14 15 16 17 18 20 23 28 29 30 31 32 34 38 41 47 54 56 58 60 61 63 64 65 71 72 74 78 79 81 82 85 86 87 88 89 90 91 92 94 97 98 99 100 101 102 104 105 107 108 109 110 113 114 116 117 119 121 123 127 129 131 132 136 137 138 139 140 141 
21 33 35 44 52 73 93 118 135 
1 3 14 18 60 64 65 74 92 94 97 98 99 104 113 121 138 141 

2 19 21 24 33 35 40 44 49 53 68 70 73 76 77 80 93 95 109 115 118 122 125 135 
2 19 21 24 33 35 40 44 52 68 70 73 76 77 80 93 95 115 118 122 125 135 
1 3 4 5 12 14 15 16 17 18 20 23 28 29 30 32 34 38 41 47 48 56 58 60 61 63 64 65 71 72 74 78 79 81 82 85 86 87 88 89 90 91 92 94 97 98 99 100 101 102 104 105 107 108 109 110 113 114 116 117 119 121 123 127 129 131 132 136 137 138 139 140 141 
36 126 
1 3 4 5 12 14 15 16 17 18 20 23 28 29 30 32 34 38 41 47 48 54 58 60 61 63 64 65 71 72 74 78 79 81 82 85 86 87 88 89 90 91 92 94 97 98 99 100 101 102 104 105 107 108 109 110 113 114 116 117 119 121 123 127 129 131 132 136 137 138 139 140 141 

1 3 4 5 12 14 15 16 17 18 20 23 28 29 30 32 34 38 41 47 48 54 56 60 61 63 64 65 71 72 74 78 79 81 82 85 86 87 88 89 90 91 92 94 97 98 99 100 101 102 104 105 107 108 109 110 113 114 116 117 119 121 123 127 129 131 132 136 137 138 139 140 141 

1 3 4 5 12 14 15 16 17 18 20 23 28 29 30 31 32 34 38 41 47 48 50 54 56 58 61 63 64 65 71 72 74 78 79 81 82 85 86 87 88 89 90 91 92 94 97 98 99 100 101 102 104 105 107 108 109 110 113 114 116 117 119 121 123 127 129 131 132 136 137 138 139 140 141 
1 3 4 5 12 14 15 16 17 18 20 23 28 29 30 32 34 38 41 47 48 54 56 58 60 63 64 65 71 72 74 78 79 81 82 85 86 87 88 89 90 91 92 94 97 98 99 100 101 102 104 105 107 108 109 110 113 114 116 117 119 121 123 127 129 131 132 136 137 138 139 140 141 
8 10 67 128 133 144 
1 3 4 5 12 14 15 16 17 18 20 23 28 29 30 32 34 38 41 47 48 54 56 58 60 61 64 65 71 72 74 78 79 81 82 85 86 87 88 89 90 91 92 94 97 98 99 100 101 102 104 105 107 108 109 110 113 114 116 117 119 121 123 127 129 131 132 136 137 138 139 140 141 
1 3 4 5 12 14 15 16 17 18 20 23 28 29 30 32 34 38 41 47 48 50 54 56 58 60 61 63 65 71 72 73 74 78 79 81 82 85 86 87 88 89 90 91 92 94 97 98 99 100 101 102 104 105 107 108 109 110 113 114 116 117 119 121 123 127 129 131 132 136 137 138 139 140 141 
1 3 4 5 12 14 15 16 17 18 20 23 28 29 30 31 32 34 38 41 47 48 50 54 56 58 60 61 63 64 71 72 74 78 79 81 82 85 86 87 88 89 90 91 92 94 97 98 99 100 101 102 104 105 107 108 109 110 113 114 116 117 119 121 123 127 129 131 132 136 137 138 139 140 141 

8 10 13 25 26 27 45 62 69 124 128 133 144 
2 19 21 24 33 35 40 44 52 53 70 73 76 77 80 93 95 115 118 122 125 135 
10 13 25 26 27 45 67 124 144 
2 19 21 24 33 35 40 44 52 53 68 73 76 77 80 93 95 115 118 122 125 135 
1 3 4 5 12 14 15 16 17 18 20 23 28 29 30 32 34 38 41 47 48 54 56 58 60 61 63 64 65 72 74 78 79 81 82 85 86 87 88 89 90 91 92 94 97 98 99 100 101 102 104 105 107 108 109 110 113 114 116 117 119 121 123 127 129 131 132 136 137 138 139 140 141 
1 3 4 5 12 14 15 16 17 18 20 23 28 29 30 32 34 38 41 47 48 54 56 58 60 61 63 64 65 71 74 78 79 81 82 85 86 87 88 89 90 91 92 94 97 98 99 100 101 102 104 105 107 108 109 110 113 114 116 117 119 121 123 127 129 131 132 136 137 138 139 140 141 
2 19 21 24 33 35 40 44 49 52 53 64 68 70 76 77 80 93 95 115 118 122 125 135 
1 3 4 5 12 14 15 16 17 18 20 23 28 29 30 32 34 38 41 47 48 50 54 56 58 60 61 63 64 65 71 72 78 79 81 82 85 86 87 88 89 90 91 92 94 97 98 99 100 101 102 104 105 107 108 109 110 113 114 116 117 119 121 123 127 129 131 132 136 137 138 139 140 141 
134 142 
2 19 21 24 33 35 40 44 52 53 68 70 73 77 80 95 115 118 122 125 135 
2 19 21 24 33 35 40 44 52 53 68 70 73 76 80 95 115 118 122 125 135 
1 3 4 5 12 14 15 16 17 18 20 23 28 29 30 32 34 38 41 47 48 54 56 58 60 61 63 64 65 71 72 74 79 81 82 85 86 87 88 89 90 91 92 94 97 98 99 100 101 102 104 105 107 108 109 110 113 114 116 117 119 121 123 127 129 131 132 136 137 138 139 140 141 
1 3 4 5 12 14 15 16 17 18 20 23 28 29 30 32 34 38 41 47 48 54 56 58 60 61 63 64 65 71 72 74 78 81 82 85 86 87 88 89 90 91 92 94 97 98 99 100 101 102 104 105 107 108 109 110 113 114 116 117 119 121 123 127 129 131 132 136 137 138 139 140 141 
2 19 21 24 33 35 40 44 52 53 68 70 73 76 77 93 95 115 118 122 125 135 
1 3 4 5 12 14 15 16 17 18 20 23 28 29 30 32 34 38 41 47 48 54 56 58 60 61 63 64 65 71 72 74 78 79 82 85 86 87 88 89 90 91 92 94 97 98 99 100 101 102 104 105 107 108 109 110 113 114 116 117 119 121 123 127 129 131 132 136 137 138 139 140 141 
1 3 4 5 12 14 15 16 17 18 20 23 28 29 30 32 34 38 41 47 48 54 56 58 60 61 63 64 65 71 72 74 78 79 81 85 86 87 88 89 90 91 92 94 97 98 99 100 101 102 104 105 107 108 109 110 113 114 116 117 119 121 123 127 129 131 132 136 137 138 139 140 141 
130 
46 
1 3 4 5 12 14 15 16 17 18 20 23 28 29 30 32 34 38 41 47 48 54 56 58 60 61 63 64 65 71 72 74 78 79 81 82 86 87 88 89 90 91 92 94 97 98 99 100 101 102 104 105 107 108 109 110 113 114 116 117 119 121 123 127 129 131 132 136 137 138 139 140 141 
1 3 4 5 12 14 15 16 17 18 20 23 28 29 30 32 34 38 41 47 48 54 56 58 60 61 63 64 65 71 72 74 78 79 81 82 85 87 88 89 90 91 92 94 97 98 99 100 101 102 104 105 107 108 109 110 113 114 116 117 119 121 123 127 129 131 132 136 137 138 139 140 141 
1 3 4 5 12 14 15 16 17 18 20 23 28 30 32 34 38 41 47 48 54 56 58 60 61 63 64 65 71 72 74 78 79 81 82 85 86 88 89 90 91 92 94 97 98 99 100 101 102 104 105 107 108 109 110 113 114 116 117 119 121 123 127 129 131 132 136 137 138 139 140 141 
1 3 4 5 12 14 15 16 17 18 20 23 28 29 30 32 34 38 41 47 48 54 56 58 60 61 63 64 65 71 72 74 78 79 81 82 85 86 87 89 90 91 92 94 97 98 99 100 101 102 104 105 107 108 109 110 113 114 116 117 119 121 123 127 129 131 132 136 137 138 139 140 141 
1 3 4 5 12 14 15 16 17 18 20 23 28 29 30 32 34 38 41 47 48 54 56 58 60 61 63 64 65 71 72 74 78 79 81 82 85 86 87 88 90 91 92 94 97 98 99 100 101 102 104 105 107 108 109 110 113 114 116 117 119 121 123 127 129 131 132 136 137 138 139 140 141 
1 3 4 5 12 14 15 16 17 18 20 23 28 29 30 32 34 38 41 47 48 54 56 58 60 61 63 64 65 71 72 74 78 79 81 82 85 86 87 88 89 91 92 94 97 98 99 100 101 102 104 105 107 108 109 110 113 114 116 117 119 121 123 127 129 132 136 137 138 139 140 141 
1 3 4 5 12 14 15 16 17 18 20 23 28 29 30 32 34 38 41 47 48 54 56 58 60 61 63 64 65 71 72 74 78 79 81 82 85 86 87 88 89 90 92 94 97 98 99 100 101 102 104 105 107 108 109 110 113 114 116 117 119 121 123 127 129 132 136 137 138 139 140 141 
1 3 4 5 12 14 15 16 17 18 20 23 28 29 30 32 34 38 41 47 48 50 54 56 58 60 61 63 64 65 71 72 74 78 79 81 82 85 86 87 88 89 90 91 94 97 98 99 100 101 102 104 105 107 108 109 110 113 114 116 117 119 121 123 127 129 131 132 136 137 138 139 140 141 
19 21 33 35 44 49 52 53 68 70 73 80 95 118 122 125 135 
1 3 4 5 12 14 15 16 17 18 20 23 28 29 30 32 34 38 41 47 48 50 54 56 58 60 61 63 64 65 71 72 74 78 79 81 82 85 86 87 88 89 90 91 92 97 98 99 100 101 102 104 105 107 108 109 110 113 114 116 117 119 121 123 127 129 131 132 136 137 138 139 140 141 
2 19 21 24 33 35 40 44 52 53 68 70 73 76 77 80 93 115 118 122 125 135 
11 106 143 
1 3 4 5 12 14 15 16 17 18 20 23 28 29 30 31 32 34 38 41 47 48 50 54 56 58 60 61 63 64 65 71 72 74 78 79 81 82 85 86 87 88 89 90 91 92 94 98 99 100 101 102 104 105 107 108 109 110 113 114 116 117 119 121 123 127 129 131 132 136 137 138 139 140 141 
1 3 4 5 12 14 15 16 17 18 20 23 28 29 30 31 32 34 38 41 47 48 50 54 56 58 60 61 63 64 65 71 72 74 78 79 81 82 85 86 87 88 89 90 91 92 94 97 99 100 101 102 104 105 107 108 109 110 113 114 116 117 119 121 123 127 129 131 132 136 137 138 139 140 141 
1 3 4 5 12 14 15 16 17 18 20 23 28 29 30 32 34 38 41 47 48 50 54 56 58 60 61 63 64 65 71 72 74 78 79 81 82 85 86 87 88 89 90 91 92 94 97 98 100 101 102 104 105 107 108 109 110 113 114 116 117 119 121 123 127 129 131 132 136 137 138 139 140 141 
1 3 4 5 12 14 15 16 17 18 20 23 28 29 30 32 34 38 41 47 48 54 56 58 60 61 63 64 65 71 72 74 78 79 81 82 85 86 87 88 89 90 91 92 94 97 98 99 101 102 104 105 107 108 109 110 113 114 116 117 119 121 123 127 129 131 132 136 137 138 139 140 141 
1 3 4 5 12 14 15 16 17 18 20 23 28 29 30 31 32 34 38 41 47 48 54 56 58 60 61 63 64 65 71 72 74 78 79 81 82 85 86 87 88 89 90 91 92 94 97 98 99 100 102 104 105 107 108 109 110 113 114 116 117 119 121 123 127 129 131 132 136 137 138 139 140 141 
1 3 4 5 12 14 15 16 17 18 20 23 28 29 30 32 34 38 41 47 48 54 56 58 60 61 63 64 65 71 72 74 78 79 81 82 85 86 87 88 89 90 91 92 94 97 98 99 100 101 104 105 107 108 109 110 113 114 116 117 119 121 123 127 129 131 132 136 137 138 139 140 141 
46 
1 3 4 5 12 14 15 16 17 18 20 23 28 29 30 32 34 38 41 47 48 50 54 56 58 60 61 63 64 65 71 72 74 78 79 81 82 85 86 87 88 89 90 91 92 94 97 98 99 100 101 102 105 107 108 109 110 113 114 116 117 119 121 123 127 129 131 132 136 137 138 139 140 141 
1 3 4 5 12 14 15 16 17 18 20 23 28 29 30 32 34 38 41 47 48 54 56 58 60 61 63 64 65 71 72 74 78 79 81 82 85 86 87 88 89 90 91 92 94 97 98 99 100 101 102 104 107 108 109 110 113 114 116 117 119 121 123 127 129 131 132 136 137 138 139 140 141 
11 96 143 
1 3 4 5 12 14 15 16 17 18 20 23 28 29 30 32 34 38 41 47 48 54 56 58 60 61 63 64 65 71 72 74 78 79 81 82 85 86 87 88 89 90 91 92 94 97 98 99 100 101 102 104 105 108 109 110 113 114 116 117 119 121 123 127 129 131 132 136 137 138 139 140 141 
1 3 4 5 12 14 15 16 17 18 20 23 28 29 30 31 32 34 38 41 47 48 54 56 58 60 61 63 64 65 71 72 74 78 79 81 82 85 86 87 88 89 90 91 92 94 97 98 99 100 101 102 104 105 107 109 110 113 114 116 117 119 121 123 127 129 131 132 136 137 138 139 140 141 
1 3 4 5 12 14 15 16 17 18 20 23 28 30 32 34 38 41 47 48 52 54 56 58 60 61 63 64 65 71 72 74 78 79 81 82 85 86 87 88 89 90 91 92 94 97 98 99 100 101 102 104 105 107 108 110 113 114 116 117 119 121 123 127 129 131 132 136 137 138 139 140 141 
1 3 4 5 12 14 15 16 17 18 20 23 28 29 30 32 34 38 41 47 48 54 56 58 60 61 63 64 65 71 72 74 78 79 81 82 85 86 87 88 89 90 91 92 94 97 98 99 100 101 102 104 105 107 108 109 113 114 116 117 119 121 123 127 129 131 132 136 137 138 139 140 141 
6 7 22 39 43 
9 37 46 120 
1 3 4 5 12 14 15 16 17 18 20 23 28 29 30 32 34 38 41 47 48 50 54 56 58 60 61 63 64 65 71 72 74 78 79 81 82 85 86 87 88 89 90 91 92 94 97 98 99 100 101 102 104 105 107 108 109 110 114 116 117 119 121 123 127 129 131 132 136 137 138 139 140 141 
1 3 4 5 12 14 15 16 17 18 20 23 28 29 30 31 32 34 38 41 47 48 54 56 58 60 61 63 64 65 71 72 74 78 79 81 82 85 86 87 88 89 90 91 92 94 97 98 99 100 101 102 104 105 107 108 109 110 113 116 117 119 121 123 127 129 131 132 136 137 138 139 140 141 
2 19 21 24 33 35 40 44 52 53 68 70 73 76 77 80 95 118 122 125 135 
1 3 4 5 12 14 15 16 17 18 20 23 28 29 30 32 34 38 41 47 48 54 56 58 60 61 63 64 65 71 72 74 78 79 81 82 85 86 87 88 89 90 91 92 94 97 98 99 100 101 102 104 105 107 108 109 110 113 114 117 119 121 123 127 129 131 132 136 137 138 139 140 141 
1 3 4 5 12 14 15 16 17 18 20 23 28 29 30 32 34 38 41 47 48 54 56 58 60 61 63 64 65 71 72 74 78 79 81 82 85 86 87 88 89 90 91 92 94 97 98 99 100 101 102 104 105 107 108 109 110 113 114 116 119 121 123 127 129 131 132 136 137 138 139 140 141 
2 19 21 24 33 35 40 44 49 52 53 68 70 73 76 77 80 93 95 115 122 125 135 
1 3 4 5 12 14 15 16 17 18 20 23 28 29 30 32 34 38 41 47 48 54 56 58 60 61 63 64 65 71 72 74 78 79 81 82 85 86 87 88 89 90 91 92 94 97 98 99 100 101 102 104 105 107 108 109 110 113 114 116 117 121 123 127 129 131 132 136 137 138 139 140 141 
9 37 46 112 
1 3 4 5 12 14 15 16 17 18 20 23 28 29 30 31 32 34 38 41 47 48 50 54 56 58 60 61 63 64 65 71 72 74 78 79 81 82 85 86 87 88 89 90 91 92 94 97 98 99 100 101 102 104 105 107 108 109 110 113 114 116 117 119 123 127 129 131 132 136 137 138 139 140 141 
2 19 21 24 33 35 40 44 52 53 68 70 73 76 77 80 93 95 115 118 125 135 
1 3 4 5 12 14 15 16 17 18 20 23 28 29 30 32 34 38 41 47 48 54 56 58 60 61 63 64 65 71 72 74 78 79 81 82 85 86 87 88 89 90 91 92 94 97 98 99 100 101 102 104 105 107 108 109 110 113 114 116 117 119 121 127 129 131 132 136 137 138 139 140 141 
10 13 25 26 27 45 67 69 144 
2 19 21 24 33 35 40 44 52 53 68 70 73 76 77 80 93 95 115 118 122 135 
36 55 
1 3 4 5 12 14 15 16 17 18 20 23 28 29 30 32 34 38 41 47 48 54 56 58 60 61 63 64 65 71 72 74 78 79 81 82 85 86 87 88 89 90 91 92 94 97 98 99 100 101 102 104 105 107 108 109 110 113 114 116 117 119 121 123 129 132 136 137 138 139 140 141 
8 10 45 62 67 133 
1 3 4 5 12 14 15 16 17 18 20 23 28 29 30 32 34 38 41 47 48 54 56 58 60 61 63 64 65 71 72 74 78 79 81 82 85 86 87 88 89 90 91 92 94 97 98 99 100 101 102 104 105 107 108 109 110 113 114 116 117 119 121 123 127 131 132 136 137 138 139 140 141 
83 
1 3 4 5 12 14 15 16 17 18 20 23 28 30 31 32 34 38 41 47 48 54 56 58 60 61 63 64 65 71 72 74 78 79 81 82 85 86 87 88 89 92 94 97 98 99 100 101 102 104 105 107 108 109 110 113 114 116 117 119 121 123 129 132 136 137 138 139 140 141 
1 3 4 5 12 14 15 16 17 18 20 23 28 29 30 32 34 38 41 47 48 54 56 58 60 61 63 64 65 71 72 74 78 79 81 82 85 86 87 88 89 90 91 92 94 97 98 99 100 101 102 104 105 107 108 109 110 113 114 116 117 119 121 123 127 129 131 136 137 138 139 140 141 
10 62 67 128 
75 142 
2 19 21 24 33 35 40 44 49 52 53 68 70 73 76 77 80 93 95 115 118 122 125 
1 3 4 5 12 14 15 16 17 18 20 23 28 29 30 32 34 38 41 47 48 54 56 58 60 61 63 64 65 71 72 74 78 79 81 82 85 86 87 88 89 90 91 92 94 97 98 99 100 101 102 104 105 107 108 109 110 113 114 116 117 119 121 123 127 129 131 132 137 138 139 140 141 
1 3 4 5 12 14 15 16 17 18 20 23 28 29 30 32 34 38 41 47 48 54 56 58 60 61 63 64 65 71 72 74 78 79 81 82 85 86 87 88 89 90 91 92 94 97 98 99 100 101 102 104 105 107 108 109 110 113 114 116 117 119 121 123 127 129 131 132 136 138 139 140 141 
1 3 4 5 12 14 15 16 17 18 20 23 28 29 30 31 32 34 38 41 47 48 50 54 56 58 60 61 63 64 65 71 72 74 78 79 81 82 85 86 87 88 89 90 91 92 94 97 98 99 100 101 102 104 105 107 108 109 110 113 114 116 117 119 121 123 127 129 131 132 136 137 139 140 141 
1 3 4 5 12 14 15 16 17 18 20 23 28 29 30 32 34 38 41 47 48 54 56 58 60 61 63 64 65 71 72 74 78 79 81 82 85 86 87 88 89 90 91 92 94 97 98 99 100 101 102 104 105 107 108 109 110 113 114 116 117 119 121 123 127 129 131 132 136 137 138 140 141 
1 3 4 5 12 14 15 16 17 18 20 23 28 29 30 32 34 38 41 47 48 54 56 58 60 61 63 64 65 71 72 74 78 79 81 82 85 86 87 88 89 90 91 92 94 97 98 99 100 101 102 104 105 107 108 109 110 113 114 116 117 119 121 123 127 129 131 132 136 137 138 139 141 
1 3 4 5 12 14 15 16 17 18 20 23 28 29 30 31 32 34 38 41 47 48 50 54 56 58 60 61 63 64 65 71 72 74 78 79 81 82 85 86 87 88 89 90 91 92 94 97 98 99 100 101 102 104 105 107 108 109 110 113 114 116 117 119 121 123 127 129 131 132 136 137 138 139 140 
75 134 
7 11 22 96 106 
8 10 13 25 26 27 45 62 67 69 124 
